c Standarized MaxSat Instance
c{
c "sha1sum": "a6a4b6e6f721a26f064205dc4ad164d8780e8869",
c "nvars": 42,
c "ncls": 1718,
c "nhards": 0,
c "nhard_len_stats":
c    { "min": 0, "max": 0, "ave": 0.00,
c      "stddev": 0.00 },
c "nsofts": 1718,
c "nsoft_len_stats":
c    { "min": 2, "max": 2, "ave": 2.00,
c      "stddev": 0.00 },
c "nsoft_wts": 10,
c "soft_wt_stats":
c    { "min": 1, "max": 10, "ave": 5.58,
c      "stddev": 2.85 }
c}
c------------------------------------------------------------
c FILE:  MANN_a45.clq.b
c
c By: Carlo Mannino (mannino@iasi.rm.cnr.it)
c
c DESCRIPTION: Clique formulation of the Steiner Triple Problem,
c              translated from the set covering formulation
c
c Graph Size:1035 , Clique Size: 345
c
c Clique Elements are:
c  11   12   13   14   15   16   17   18   19   20   31   32
c  33   34   35   48   50   53   57   60   62   66   69   71
c  74   76   79   82   85   88   91   94   97  100  103  106
c 109  112  115  118  121  124  127  130  133  137  140  143
c 146  148  153  156  159  162  165  168  171  174  177  180
c 181  184  187  190  193  196  199  202  205  208  212  215
c 218  221  224  227  230  233  236  239  242  245  248  251
c 254  258  261  264  267  270  273  276  279  282  285  286
c 289  292  295  298  301  304  307  310  313  317  320  323
c 326  329  332  335  338  341  344  347  350  353  356  359
c 363  366  369  372  375  378  381  384  387  390  393  396
c 399  402  405  408  411  414  417  420  423  426  429  432
c 435  438  441  444  447  450  453  456  459  462  465  467
c 470  473  476  479  482  485  488  491  494  498  501  504
c 507  510  513  516  519  522  525  528  531  534  537  540
c 543  546  549  552  555  558  561  564  567  570  573  576
c 579  582  585  588  591  594  597  600  603  606  609  612
c 615  618  621  624  627  630  633  636  639  642  645  648
c 651  654  657  660  663  666  669  672  675  677  680  683
c 686  689  692  695  698  701  704  708  711  714  717  720
c 723  726  729  732  735  737  740  743  746  749  752  755
c 758  761  764  767  770  773  776  779  781  784  787  790
c 793  796  799  802  805  808  813  816  819  822  825  828
c 831  834  837  840  843  846  849  852  855  858  861  864
c 867  870  873  876  879  882  885  886  889  892  895  898
c 901  904  907  910  913  918  921  924  927  930  933  936
c 939  942  945  947  950  953  956  959  962  965  968  971
c 974  977  980  983  986  989  991  994  997 1000 1003 1008
c 1011 1014 1017 1020 1023 1026 1029 1032 1035 *
c
c  EDGE DENSITY: 0.9963
p wcnf 42 1718 9583
9 1 2 0
9 -1 -2 0
4 1 3 0
4 -1 -3 0
8 1 4 0
8 -1 -4 0
8 1 5 0
8 -1 -5 0
10 1 6 0
10 -1 -6 0
2 1 7 0
2 -1 -7 0
4 1 8 0
4 -1 -8 0
8 1 9 0
8 -1 -9 0
3 1 10 0
3 -1 -10 0
6 1 11 0
6 -1 -11 0
5 1 12 0
5 -1 -12 0
7 1 13 0
7 -1 -13 0
4 1 14 0
4 -1 -14 0
6 1 15 0
6 -1 -15 0
10 1 16 0
10 -1 -16 0
10 1 17 0
10 -1 -17 0
7 1 18 0
7 -1 -18 0
8 1 20 0
8 -1 -20 0
2 1 21 0
2 -1 -21 0
7 1 23 0
7 -1 -23 0
1 1 24 0
1 -1 -24 0
3 1 25 0
3 -1 -25 0
2 1 26 0
2 -1 -26 0
9 1 27 0
9 -1 -27 0
2 1 28 0
2 -1 -28 0
5 1 29 0
5 -1 -29 0
2 1 30 0
2 -1 -30 0
2 1 31 0
2 -1 -31 0
10 1 32 0
10 -1 -32 0
3 1 33 0
3 -1 -33 0
6 1 34 0
6 -1 -34 0
9 1 35 0
9 -1 -35 0
7 1 36 0
7 -1 -36 0
3 1 37 0
3 -1 -37 0
7 1 38 0
7 -1 -38 0
6 1 39 0
6 -1 -39 0
5 1 40 0
5 -1 -40 0
10 1 41 0
10 -1 -41 0
3 1 42 0
3 -1 -42 0
8 2 3 0
8 -2 -3 0
6 2 4 0
6 -2 -4 0
8 2 5 0
8 -2 -5 0
5 2 6 0
5 -2 -6 0
9 2 7 0
9 -2 -7 0
3 2 8 0
3 -2 -8 0
4 2 9 0
4 -2 -9 0
9 2 10 0
9 -2 -10 0
10 2 11 0
10 -2 -11 0
1 2 12 0
1 -2 -12 0
10 2 13 0
10 -2 -13 0
6 2 14 0
6 -2 -14 0
1 2 15 0
1 -2 -15 0
2 2 16 0
2 -2 -16 0
7 2 17 0
7 -2 -17 0
9 2 18 0
9 -2 -18 0
4 2 19 0
4 -2 -19 0
1 2 20 0
1 -2 -20 0
1 2 21 0
1 -2 -21 0
5 2 22 0
5 -2 -22 0
1 2 23 0
1 -2 -23 0
3 2 24 0
3 -2 -24 0
10 2 25 0
10 -2 -25 0
10 2 26 0
10 -2 -26 0
9 2 27 0
9 -2 -27 0
3 2 28 0
3 -2 -28 0
6 2 29 0
6 -2 -29 0
4 2 30 0
4 -2 -30 0
8 2 31 0
8 -2 -31 0
6 2 32 0
6 -2 -32 0
7 2 33 0
7 -2 -33 0
6 2 34 0
6 -2 -34 0
1 2 35 0
1 -2 -35 0
5 2 36 0
5 -2 -36 0
10 2 37 0
10 -2 -37 0
10 2 38 0
10 -2 -38 0
8 2 39 0
8 -2 -39 0
3 2 40 0
3 -2 -40 0
8 2 41 0
8 -2 -41 0
7 2 42 0
7 -2 -42 0
4 3 4 0
4 -3 -4 0
7 3 5 0
7 -3 -5 0
2 3 6 0
2 -3 -6 0
5 3 7 0
5 -3 -7 0
9 3 8 0
9 -3 -8 0
9 3 9 0
9 -3 -9 0
4 3 10 0
4 -3 -10 0
3 3 11 0
3 -3 -11 0
9 3 12 0
9 -3 -12 0
4 3 13 0
4 -3 -13 0
7 3 14 0
7 -3 -14 0
10 3 15 0
10 -3 -15 0
6 3 16 0
6 -3 -16 0
7 3 17 0
7 -3 -17 0
9 3 18 0
9 -3 -18 0
5 3 19 0
5 -3 -19 0
10 3 20 0
10 -3 -20 0
4 3 21 0
4 -3 -21 0
9 3 22 0
9 -3 -22 0
7 3 23 0
7 -3 -23 0
10 3 24 0
10 -3 -24 0
5 3 25 0
5 -3 -25 0
3 3 26 0
3 -3 -26 0
10 3 27 0
10 -3 -27 0
10 3 28 0
10 -3 -28 0
2 3 29 0
2 -3 -29 0
9 3 30 0
9 -3 -30 0
7 3 31 0
7 -3 -31 0
5 3 32 0
5 -3 -32 0
7 3 33 0
7 -3 -33 0
3 3 34 0
3 -3 -34 0
8 3 35 0
8 -3 -35 0
4 3 36 0
4 -3 -36 0
5 3 37 0
5 -3 -37 0
3 3 38 0
3 -3 -38 0
2 3 39 0
2 -3 -39 0
3 3 40 0
3 -3 -40 0
6 3 41 0
6 -3 -41 0
5 3 42 0
5 -3 -42 0
2 4 5 0
2 -4 -5 0
10 4 6 0
10 -4 -6 0
2 4 7 0
2 -4 -7 0
2 4 8 0
2 -4 -8 0
5 4 9 0
5 -4 -9 0
8 4 10 0
8 -4 -10 0
10 4 11 0
10 -4 -11 0
10 4 12 0
10 -4 -12 0
7 4 13 0
7 -4 -13 0
4 4 14 0
4 -4 -14 0
8 4 15 0
8 -4 -15 0
4 4 16 0
4 -4 -16 0
3 4 17 0
3 -4 -17 0
3 4 18 0
3 -4 -18 0
6 4 19 0
6 -4 -19 0
3 4 20 0
3 -4 -20 0
2 4 21 0
2 -4 -21 0
8 4 22 0
8 -4 -22 0
2 4 23 0
2 -4 -23 0
8 4 24 0
8 -4 -24 0
2 4 25 0
2 -4 -25 0
8 4 26 0
8 -4 -26 0
1 4 27 0
1 -4 -27 0
10 4 28 0
10 -4 -28 0
1 4 29 0
1 -4 -29 0
6 4 30 0
6 -4 -30 0
2 4 31 0
2 -4 -31 0
3 4 32 0
3 -4 -32 0
8 4 33 0
8 -4 -33 0
8 4 34 0
8 -4 -34 0
7 4 35 0
7 -4 -35 0
10 4 36 0
10 -4 -36 0
7 4 37 0
7 -4 -37 0
8 4 38 0
8 -4 -38 0
1 4 39 0
1 -4 -39 0
2 4 40 0
2 -4 -40 0
6 4 41 0
6 -4 -41 0
1 4 42 0
1 -4 -42 0
1 5 6 0
1 -5 -6 0
3 5 7 0
3 -5 -7 0
5 5 8 0
5 -5 -8 0
9 5 9 0
9 -5 -9 0
6 5 10 0
6 -5 -10 0
8 5 11 0
8 -5 -11 0
1 5 12 0
1 -5 -12 0
2 5 13 0
2 -5 -13 0
10 5 14 0
10 -5 -14 0
3 5 15 0
3 -5 -15 0
9 5 16 0
9 -5 -16 0
2 5 17 0
2 -5 -17 0
10 5 18 0
10 -5 -18 0
1 5 19 0
1 -5 -19 0
9 5 20 0
9 -5 -20 0
1 5 21 0
1 -5 -21 0
1 5 22 0
1 -5 -22 0
10 5 23 0
10 -5 -23 0
6 5 24 0
6 -5 -24 0
2 5 25 0
2 -5 -25 0
2 5 26 0
2 -5 -26 0
4 5 27 0
4 -5 -27 0
10 5 28 0
10 -5 -28 0
9 5 29 0
9 -5 -29 0
4 5 30 0
4 -5 -30 0
6 5 31 0
6 -5 -31 0
6 5 32 0
6 -5 -32 0
5 5 33 0
5 -5 -33 0
7 5 34 0
7 -5 -34 0
1 5 35 0
1 -5 -35 0
6 5 36 0
6 -5 -36 0
8 5 37 0
8 -5 -37 0
4 5 38 0
4 -5 -38 0
10 5 39 0
10 -5 -39 0
6 5 40 0
6 -5 -40 0
9 5 41 0
9 -5 -41 0
8 5 42 0
8 -5 -42 0
7 6 7 0
7 -6 -7 0
1 6 8 0
1 -6 -8 0
8 6 9 0
8 -6 -9 0
9 6 10 0
9 -6 -10 0
10 6 11 0
10 -6 -11 0
9 6 12 0
9 -6 -12 0
9 6 13 0
9 -6 -13 0
10 6 14 0
10 -6 -14 0
8 6 15 0
8 -6 -15 0
10 6 16 0
10 -6 -16 0
10 6 17 0
10 -6 -17 0
7 6 18 0
7 -6 -18 0
5 6 19 0
5 -6 -19 0
2 6 20 0
2 -6 -20 0
9 6 21 0
9 -6 -21 0
9 6 22 0
9 -6 -22 0
1 6 23 0
1 -6 -23 0
7 6 24 0
7 -6 -24 0
3 6 25 0
3 -6 -25 0
7 6 26 0
7 -6 -26 0
3 6 27 0
3 -6 -27 0
8 6 28 0
8 -6 -28 0
4 6 29 0
4 -6 -29 0
4 6 30 0
4 -6 -30 0
3 6 31 0
3 -6 -31 0
1 6 32 0
1 -6 -32 0
7 6 33 0
7 -6 -33 0
3 6 34 0
3 -6 -34 0
7 6 35 0
7 -6 -35 0
6 6 36 0
6 -6 -36 0
10 6 37 0
10 -6 -37 0
3 6 38 0
3 -6 -38 0
6 6 39 0
6 -6 -39 0
8 6 40 0
8 -6 -40 0
2 6 41 0
2 -6 -41 0
5 6 42 0
5 -6 -42 0
6 7 8 0
6 -7 -8 0
10 7 9 0
10 -7 -9 0
5 7 10 0
5 -7 -10 0
4 7 11 0
4 -7 -11 0
9 7 12 0
9 -7 -12 0
5 7 13 0
5 -7 -13 0
1 7 14 0
1 -7 -14 0
4 7 15 0
4 -7 -15 0
6 7 16 0
6 -7 -16 0
9 7 17 0
9 -7 -17 0
3 7 18 0
3 -7 -18 0
7 7 19 0
7 -7 -19 0
5 7 20 0
5 -7 -20 0
5 7 21 0
5 -7 -21 0
4 7 22 0
4 -7 -22 0
8 7 23 0
8 -7 -23 0
2 7 24 0
2 -7 -24 0
7 7 25 0
7 -7 -25 0
1 7 26 0
1 -7 -26 0
5 7 27 0
5 -7 -27 0
7 7 28 0
7 -7 -28 0
7 7 29 0
7 -7 -29 0
7 7 30 0
7 -7 -30 0
4 7 31 0
4 -7 -31 0
2 7 32 0
2 -7 -32 0
7 7 33 0
7 -7 -33 0
7 7 34 0
7 -7 -34 0
8 7 35 0
8 -7 -35 0
4 7 36 0
4 -7 -36 0
8 7 37 0
8 -7 -37 0
3 7 38 0
3 -7 -38 0
10 7 39 0
10 -7 -39 0
7 7 40 0
7 -7 -40 0
7 7 41 0
7 -7 -41 0
3 7 42 0
3 -7 -42 0
6 8 9 0
6 -8 -9 0
1 8 10 0
1 -8 -10 0
3 8 11 0
3 -8 -11 0
9 8 12 0
9 -8 -12 0
7 8 13 0
7 -8 -13 0
1 8 14 0
1 -8 -14 0
2 8 15 0
2 -8 -15 0
4 8 16 0
4 -8 -16 0
6 8 17 0
6 -8 -17 0
6 8 18 0
6 -8 -18 0
7 8 19 0
7 -8 -19 0
3 8 20 0
3 -8 -20 0
8 8 21 0
8 -8 -21 0
3 8 22 0
3 -8 -22 0
4 8 23 0
4 -8 -23 0
2 8 24 0
2 -8 -24 0
10 8 25 0
10 -8 -25 0
1 8 26 0
1 -8 -26 0
9 8 27 0
9 -8 -27 0
4 8 28 0
4 -8 -28 0
2 8 29 0
2 -8 -29 0
5 8 30 0
5 -8 -30 0
10 8 31 0
10 -8 -31 0
10 8 32 0
10 -8 -32 0
8 8 33 0
8 -8 -33 0
7 8 34 0
7 -8 -34 0
2 8 35 0
2 -8 -35 0
7 8 36 0
7 -8 -36 0
4 8 37 0
4 -8 -37 0
8 8 38 0
8 -8 -38 0
10 8 39 0
10 -8 -39 0
10 8 40 0
10 -8 -40 0
9 8 41 0
9 -8 -41 0
3 8 42 0
3 -8 -42 0
8 9 10 0
8 -9 -10 0
6 9 11 0
6 -9 -11 0
3 9 12 0
3 -9 -12 0
10 9 13 0
10 -9 -13 0
10 9 14 0
10 -9 -14 0
9 9 15 0
9 -9 -15 0
5 9 16 0
5 -9 -16 0
6 9 17 0
6 -9 -17 0
2 9 18 0
2 -9 -18 0
3 9 19 0
3 -9 -19 0
9 9 20 0
9 -9 -20 0
5 9 21 0
5 -9 -21 0
5 9 22 0
5 -9 -22 0
9 9 23 0
9 -9 -23 0
5 9 24 0
5 -9 -24 0
3 9 25 0
3 -9 -25 0
2 9 26 0
2 -9 -26 0
7 9 27 0
7 -9 -27 0
8 9 28 0
8 -9 -28 0
2 9 29 0
2 -9 -29 0
7 9 30 0
7 -9 -30 0
5 9 31 0
5 -9 -31 0
9 9 32 0
9 -9 -32 0
8 9 33 0
8 -9 -33 0
2 9 34 0
2 -9 -34 0
3 9 35 0
3 -9 -35 0
5 9 36 0
5 -9 -36 0
2 9 37 0
2 -9 -37 0
2 9 38 0
2 -9 -38 0
4 9 39 0
4 -9 -39 0
4 9 40 0
4 -9 -40 0
10 9 41 0
10 -9 -41 0
10 9 42 0
10 -9 -42 0
7 10 11 0
7 -10 -11 0
9 10 12 0
9 -10 -12 0
9 10 13 0
9 -10 -13 0
5 10 14 0
5 -10 -14 0
4 10 15 0
4 -10 -15 0
4 10 16 0
4 -10 -16 0
7 10 17 0
7 -10 -17 0
7 10 18 0
7 -10 -18 0
3 10 19 0
3 -10 -19 0
2 10 20 0
2 -10 -20 0
1 10 21 0
1 -10 -21 0
2 10 22 0
2 -10 -22 0
7 10 23 0
7 -10 -23 0
4 10 24 0
4 -10 -24 0
3 10 25 0
3 -10 -25 0
4 10 26 0
4 -10 -26 0
1 10 27 0
1 -10 -27 0
5 10 28 0
5 -10 -28 0
10 10 29 0
10 -10 -29 0
6 10 30 0
6 -10 -30 0
3 10 31 0
3 -10 -31 0
7 10 32 0
7 -10 -32 0
8 10 33 0
8 -10 -33 0
5 10 34 0
5 -10 -34 0
2 10 35 0
2 -10 -35 0
9 10 36 0
9 -10 -36 0
7 10 37 0
7 -10 -37 0
6 10 38 0
6 -10 -38 0
3 10 39 0
3 -10 -39 0
6 10 40 0
6 -10 -40 0
5 10 41 0
5 -10 -41 0
9 10 42 0
9 -10 -42 0
4 11 12 0
4 -11 -12 0
3 11 13 0
3 -11 -13 0
4 11 14 0
4 -11 -14 0
8 11 15 0
8 -11 -15 0
7 11 16 0
7 -11 -16 0
10 11 17 0
10 -11 -17 0
4 11 18 0
4 -11 -18 0
9 11 19 0
9 -11 -19 0
2 11 20 0
2 -11 -20 0
5 11 21 0
5 -11 -21 0
1 11 22 0
1 -11 -22 0
8 11 23 0
8 -11 -23 0
8 11 24 0
8 -11 -24 0
3 11 25 0
3 -11 -25 0
2 11 26 0
2 -11 -26 0
9 11 27 0
9 -11 -27 0
8 11 28 0
8 -11 -28 0
1 11 29 0
1 -11 -29 0
5 11 30 0
5 -11 -30 0
10 11 31 0
10 -11 -31 0
8 11 32 0
8 -11 -32 0
3 11 33 0
3 -11 -33 0
5 11 34 0
5 -11 -34 0
9 11 35 0
9 -11 -35 0
1 11 36 0
1 -11 -36 0
1 11 37 0
1 -11 -37 0
4 11 38 0
4 -11 -38 0
4 11 39 0
4 -11 -39 0
7 11 40 0
7 -11 -40 0
9 11 41 0
9 -11 -41 0
2 11 42 0
2 -11 -42 0
1 12 13 0
1 -12 -13 0
1 12 14 0
1 -12 -14 0
5 12 15 0
5 -12 -15 0
8 12 16 0
8 -12 -16 0
7 12 17 0
7 -12 -17 0
5 12 18 0
5 -12 -18 0
2 12 19 0
2 -12 -19 0
6 12 20 0
6 -12 -20 0
6 12 21 0
6 -12 -21 0
6 12 22 0
6 -12 -22 0
6 12 23 0
6 -12 -23 0
4 12 24 0
4 -12 -24 0
4 12 25 0
4 -12 -25 0
9 12 26 0
9 -12 -26 0
5 12 27 0
5 -12 -27 0
2 12 28 0
2 -12 -28 0
7 12 29 0
7 -12 -29 0
6 12 30 0
6 -12 -30 0
7 12 31 0
7 -12 -31 0
6 12 32 0
6 -12 -32 0
3 12 33 0
3 -12 -33 0
9 12 34 0
9 -12 -34 0
1 12 35 0
1 -12 -35 0
1 12 36 0
1 -12 -36 0
10 12 37 0
10 -12 -37 0
2 12 38 0
2 -12 -38 0
5 12 39 0
5 -12 -39 0
3 12 40 0
3 -12 -40 0
9 12 41 0
9 -12 -41 0
3 12 42 0
3 -12 -42 0
4 13 14 0
4 -13 -14 0
9 13 15 0
9 -13 -15 0
4 13 16 0
4 -13 -16 0
9 13 17 0
9 -13 -17 0
7 13 18 0
7 -13 -18 0
1 13 19 0
1 -13 -19 0
3 13 20 0
3 -13 -20 0
8 13 21 0
8 -13 -21 0
7 13 22 0
7 -13 -22 0
9 13 23 0
9 -13 -23 0
4 13 24 0
4 -13 -24 0
3 13 25 0
3 -13 -25 0
2 13 26 0
2 -13 -26 0
7 13 27 0
7 -13 -27 0
2 13 28 0
2 -13 -28 0
7 13 29 0
7 -13 -29 0
8 13 30 0
8 -13 -30 0
8 13 31 0
8 -13 -31 0
3 13 32 0
3 -13 -32 0
5 13 33 0
5 -13 -33 0
4 13 34 0
4 -13 -34 0
5 13 35 0
5 -13 -35 0
3 13 36 0
3 -13 -36 0
4 13 37 0
4 -13 -37 0
6 13 38 0
6 -13 -38 0
2 13 39 0
2 -13 -39 0
6 13 40 0
6 -13 -40 0
1 13 41 0
1 -13 -41 0
4 13 42 0
4 -13 -42 0
4 14 15 0
4 -14 -15 0
4 14 16 0
4 -14 -16 0
8 14 17 0
8 -14 -17 0
3 14 18 0
3 -14 -18 0
7 14 19 0
7 -14 -19 0
6 14 20 0
6 -14 -20 0
10 14 21 0
10 -14 -21 0
7 14 22 0
7 -14 -22 0
9 14 23 0
9 -14 -23 0
7 14 24 0
7 -14 -24 0
4 14 25 0
4 -14 -25 0
7 14 26 0
7 -14 -26 0
1 14 27 0
1 -14 -27 0
6 14 28 0
6 -14 -28 0
9 14 29 0
9 -14 -29 0
7 14 30 0
7 -14 -30 0
7 14 31 0
7 -14 -31 0
6 14 32 0
6 -14 -32 0
5 14 33 0
5 -14 -33 0
4 14 34 0
4 -14 -34 0
8 14 35 0
8 -14 -35 0
9 14 36 0
9 -14 -36 0
7 14 37 0
7 -14 -37 0
2 14 38 0
2 -14 -38 0
1 14 39 0
1 -14 -39 0
1 14 40 0
1 -14 -40 0
7 14 41 0
7 -14 -41 0
2 14 42 0
2 -14 -42 0
7 15 16 0
7 -15 -16 0
8 15 17 0
8 -15 -17 0
6 15 18 0
6 -15 -18 0
1 15 19 0
1 -15 -19 0
1 15 20 0
1 -15 -20 0
4 15 21 0
4 -15 -21 0
3 15 22 0
3 -15 -22 0
7 15 23 0
7 -15 -23 0
9 15 24 0
9 -15 -24 0
2 15 25 0
2 -15 -25 0
4 15 26 0
4 -15 -26 0
7 15 27 0
7 -15 -27 0
9 15 28 0
9 -15 -28 0
7 15 29 0
7 -15 -29 0
4 15 30 0
4 -15 -30 0
9 15 31 0
9 -15 -31 0
2 15 32 0
2 -15 -32 0
2 15 33 0
2 -15 -33 0
6 15 34 0
6 -15 -34 0
9 15 35 0
9 -15 -35 0
7 15 36 0
7 -15 -36 0
10 15 37 0
10 -15 -37 0
2 15 38 0
2 -15 -38 0
4 15 39 0
4 -15 -39 0
8 15 40 0
8 -15 -40 0
9 15 41 0
9 -15 -41 0
6 15 42 0
6 -15 -42 0
8 16 17 0
8 -16 -17 0
10 16 18 0
10 -16 -18 0
3 16 19 0
3 -16 -19 0
10 16 20 0
10 -16 -20 0
6 16 21 0
6 -16 -21 0
10 16 22 0
10 -16 -22 0
5 16 23 0
5 -16 -23 0
6 16 24 0
6 -16 -24 0
10 16 25 0
10 -16 -25 0
8 16 26 0
8 -16 -26 0
9 16 27 0
9 -16 -27 0
6 16 28 0
6 -16 -28 0
7 16 29 0
7 -16 -29 0
10 16 30 0
10 -16 -30 0
10 16 31 0
10 -16 -31 0
4 16 32 0
4 -16 -32 0
9 16 33 0
9 -16 -33 0
6 16 34 0
6 -16 -34 0
7 16 35 0
7 -16 -35 0
8 16 36 0
8 -16 -36 0
8 16 37 0
8 -16 -37 0
8 16 38 0
8 -16 -38 0
3 16 39 0
3 -16 -39 0
7 16 40 0
7 -16 -40 0
5 16 41 0
5 -16 -41 0
2 16 42 0
2 -16 -42 0
8 17 18 0
8 -17 -18 0
9 17 19 0
9 -17 -19 0
9 17 20 0
9 -17 -20 0
7 17 21 0
7 -17 -21 0
5 17 22 0
5 -17 -22 0
7 17 23 0
7 -17 -23 0
6 17 24 0
6 -17 -24 0
7 17 25 0
7 -17 -25 0
6 17 26 0
6 -17 -26 0
2 17 27 0
2 -17 -27 0
6 17 28 0
6 -17 -28 0
1 17 29 0
1 -17 -29 0
8 17 30 0
8 -17 -30 0
6 17 31 0
6 -17 -31 0
9 17 32 0
9 -17 -32 0
6 17 33 0
6 -17 -33 0
2 17 34 0
2 -17 -34 0
5 17 35 0
5 -17 -35 0
6 17 36 0
6 -17 -36 0
1 17 37 0
1 -17 -37 0
9 17 38 0
9 -17 -38 0
4 17 39 0
4 -17 -39 0
7 17 40 0
7 -17 -40 0
5 17 41 0
5 -17 -41 0
2 17 42 0
2 -17 -42 0
5 18 19 0
5 -18 -19 0
3 18 20 0
3 -18 -20 0
5 18 21 0
5 -18 -21 0
1 18 22 0
1 -18 -22 0
8 18 23 0
8 -18 -23 0
6 18 24 0
6 -18 -24 0
9 18 25 0
9 -18 -25 0
6 18 26 0
6 -18 -26 0
5 18 27 0
5 -18 -27 0
5 18 28 0
5 -18 -28 0
10 18 29 0
10 -18 -29 0
1 18 30 0
1 -18 -30 0
1 18 31 0
1 -18 -31 0
7 18 32 0
7 -18 -32 0
6 18 33 0
6 -18 -33 0
3 18 34 0
3 -18 -34 0
3 18 35 0
3 -18 -35 0
7 18 36 0
7 -18 -36 0
10 18 37 0
10 -18 -37 0
8 18 38 0
8 -18 -38 0
5 18 39 0
5 -18 -39 0
5 18 40 0
5 -18 -40 0
9 18 41 0
9 -18 -41 0
10 18 42 0
10 -18 -42 0
10 19 20 0
10 -19 -20 0
9 19 21 0
9 -19 -21 0
8 19 22 0
8 -19 -22 0
4 19 23 0
4 -19 -23 0
6 19 24 0
6 -19 -24 0
3 19 25 0
3 -19 -25 0
5 19 26 0
5 -19 -26 0
10 19 27 0
10 -19 -27 0
5 19 28 0
5 -19 -28 0
9 19 29 0
9 -19 -29 0
10 19 30 0
10 -19 -30 0
2 19 31 0
2 -19 -31 0
5 19 32 0
5 -19 -32 0
8 19 33 0
8 -19 -33 0
8 19 34 0
8 -19 -34 0
10 19 35 0
10 -19 -35 0
3 19 36 0
3 -19 -36 0
8 19 37 0
8 -19 -37 0
10 19 38 0
10 -19 -38 0
4 19 39 0
4 -19 -39 0
5 19 40 0
5 -19 -40 0
6 19 41 0
6 -19 -41 0
6 19 42 0
6 -19 -42 0
7 20 21 0
7 -20 -21 0
2 20 22 0
2 -20 -22 0
5 20 23 0
5 -20 -23 0
4 20 24 0
4 -20 -24 0
7 20 25 0
7 -20 -25 0
10 20 26 0
10 -20 -26 0
3 20 27 0
3 -20 -27 0
7 20 28 0
7 -20 -28 0
9 20 29 0
9 -20 -29 0
2 20 30 0
2 -20 -30 0
4 20 31 0
4 -20 -31 0
2 20 32 0
2 -20 -32 0
7 20 33 0
7 -20 -33 0
6 20 34 0
6 -20 -34 0
7 20 35 0
7 -20 -35 0
6 20 36 0
6 -20 -36 0
1 20 37 0
1 -20 -37 0
6 20 38 0
6 -20 -38 0
6 20 39 0
6 -20 -39 0
3 20 40 0
3 -20 -40 0
1 20 41 0
1 -20 -41 0
4 20 42 0
4 -20 -42 0
1 21 22 0
1 -21 -22 0
10 21 23 0
10 -21 -23 0
7 21 24 0
7 -21 -24 0
8 21 25 0
8 -21 -25 0
9 21 26 0
9 -21 -26 0
10 21 27 0
10 -21 -27 0
2 21 28 0
2 -21 -28 0
5 21 29 0
5 -21 -29 0
5 21 30 0
5 -21 -30 0
8 21 31 0
8 -21 -31 0
7 21 32 0
7 -21 -32 0
10 21 33 0
10 -21 -33 0
2 21 34 0
2 -21 -34 0
3 21 35 0
3 -21 -35 0
9 21 36 0
9 -21 -36 0
4 21 37 0
4 -21 -37 0
9 21 38 0
9 -21 -38 0
8 21 39 0
8 -21 -39 0
5 21 40 0
5 -21 -40 0
3 21 41 0
3 -21 -41 0
10 21 42 0
10 -21 -42 0
2 22 23 0
2 -22 -23 0
9 22 24 0
9 -22 -24 0
7 22 25 0
7 -22 -25 0
8 22 26 0
8 -22 -26 0
10 22 27 0
10 -22 -27 0
2 22 28 0
2 -22 -28 0
3 22 29 0
3 -22 -29 0
2 22 30 0
2 -22 -30 0
3 22 31 0
3 -22 -31 0
7 22 32 0
7 -22 -32 0
2 22 33 0
2 -22 -33 0
2 22 34 0
2 -22 -34 0
3 22 35 0
3 -22 -35 0
10 22 36 0
10 -22 -36 0
1 22 37 0
1 -22 -37 0
2 22 38 0
2 -22 -38 0
2 22 39 0
2 -22 -39 0
5 22 40 0
5 -22 -40 0
7 22 41 0
7 -22 -41 0
10 22 42 0
10 -22 -42 0
2 23 24 0
2 -23 -24 0
7 23 25 0
7 -23 -25 0
1 23 26 0
1 -23 -26 0
4 23 27 0
4 -23 -27 0
5 23 28 0
5 -23 -28 0
5 23 29 0
5 -23 -29 0
3 23 30 0
3 -23 -30 0
3 23 31 0
3 -23 -31 0
10 23 32 0
10 -23 -32 0
6 23 33 0
6 -23 -33 0
2 23 34 0
2 -23 -34 0
1 23 35 0
1 -23 -35 0
5 23 36 0
5 -23 -36 0
9 23 37 0
9 -23 -37 0
8 23 38 0
8 -23 -38 0
4 23 39 0
4 -23 -39 0
10 23 40 0
10 -23 -40 0
1 23 41 0
1 -23 -41 0
6 23 42 0
6 -23 -42 0
3 24 25 0
3 -24 -25 0
7 24 26 0
7 -24 -26 0
7 24 27 0
7 -24 -27 0
4 24 28 0
4 -24 -28 0
9 24 29 0
9 -24 -29 0
7 24 30 0
7 -24 -30 0
4 24 31 0
4 -24 -31 0
1 24 32 0
1 -24 -32 0
8 24 33 0
8 -24 -33 0
9 24 34 0
9 -24 -34 0
7 24 35 0
7 -24 -35 0
7 24 36 0
7 -24 -36 0
10 24 37 0
10 -24 -37 0
4 24 38 0
4 -24 -38 0
8 24 39 0
8 -24 -39 0
3 24 40 0
3 -24 -40 0
9 24 41 0
9 -24 -41 0
2 24 42 0
2 -24 -42 0
6 25 26 0
6 -25 -26 0
1 25 27 0
1 -25 -27 0
2 25 28 0
2 -25 -28 0
2 25 29 0
2 -25 -29 0
3 25 30 0
3 -25 -30 0
2 25 31 0
2 -25 -31 0
6 25 32 0
6 -25 -32 0
1 25 33 0
1 -25 -33 0
9 25 34 0
9 -25 -34 0
10 25 35 0
10 -25 -35 0
1 25 36 0
1 -25 -36 0
10 25 37 0
10 -25 -37 0
5 25 38 0
5 -25 -38 0
3 25 39 0
3 -25 -39 0
6 25 40 0
6 -25 -40 0
2 25 41 0
2 -25 -41 0
6 25 42 0
6 -25 -42 0
5 26 27 0
5 -26 -27 0
9 26 28 0
9 -26 -28 0
10 26 29 0
10 -26 -29 0
6 26 30 0
6 -26 -30 0
6 26 31 0
6 -26 -31 0
8 26 32 0
8 -26 -32 0
3 26 33 0
3 -26 -33 0
3 26 34 0
3 -26 -34 0
7 26 35 0
7 -26 -35 0
6 26 36 0
6 -26 -36 0
1 26 37 0
1 -26 -37 0
10 26 38 0
10 -26 -38 0
4 26 39 0
4 -26 -39 0
3 26 40 0
3 -26 -40 0
6 26 41 0
6 -26 -41 0
5 26 42 0
5 -26 -42 0
4 27 28 0
4 -27 -28 0
7 27 29 0
7 -27 -29 0
7 27 30 0
7 -27 -30 0
5 27 31 0
5 -27 -31 0
3 27 32 0
3 -27 -32 0
8 27 33 0
8 -27 -33 0
4 27 34 0
4 -27 -34 0
3 27 35 0
3 -27 -35 0
8 27 36 0
8 -27 -36 0
3 27 37 0
3 -27 -37 0
7 27 38 0
7 -27 -38 0
1 27 39 0
1 -27 -39 0
9 27 40 0
9 -27 -40 0
9 27 41 0
9 -27 -41 0
7 27 42 0
7 -27 -42 0
4 28 29 0
4 -28 -29 0
7 28 30 0
7 -28 -30 0
6 28 31 0
6 -28 -31 0
9 28 32 0
9 -28 -32 0
3 28 33 0
3 -28 -33 0
3 28 34 0
3 -28 -34 0
1 28 35 0
1 -28 -35 0
6 28 36 0
6 -28 -36 0
9 28 37 0
9 -28 -37 0
7 28 38 0
7 -28 -38 0
6 28 39 0
6 -28 -39 0
9 28 40 0
9 -28 -40 0
10 28 41 0
10 -28 -41 0
8 28 42 0
8 -28 -42 0
4 29 30 0
4 -29 -30 0
4 29 31 0
4 -29 -31 0
1 29 32 0
1 -29 -32 0
1 29 33 0
1 -29 -33 0
1 29 34 0
1 -29 -34 0
5 29 35 0
5 -29 -35 0
3 29 36 0
3 -29 -36 0
8 29 37 0
8 -29 -37 0
9 29 38 0
9 -29 -38 0
6 29 39 0
6 -29 -39 0
5 29 40 0
5 -29 -40 0
1 29 41 0
1 -29 -41 0
2 29 42 0
2 -29 -42 0
5 30 31 0
5 -30 -31 0
10 30 32 0
10 -30 -32 0
1 30 33 0
1 -30 -33 0
1 30 34 0
1 -30 -34 0
3 30 35 0
3 -30 -35 0
8 30 36 0
8 -30 -36 0
7 30 37 0
7 -30 -37 0
1 30 38 0
1 -30 -38 0
10 30 39 0
10 -30 -39 0
9 30 40 0
9 -30 -40 0
2 30 41 0
2 -30 -41 0
5 30 42 0
5 -30 -42 0
8 31 32 0
8 -31 -32 0
8 31 33 0
8 -31 -33 0
1 31 34 0
1 -31 -34 0
6 31 35 0
6 -31 -35 0
8 31 36 0
8 -31 -36 0
8 31 37 0
8 -31 -37 0
10 31 38 0
10 -31 -38 0
1 31 39 0
1 -31 -39 0
8 31 40 0
8 -31 -40 0
10 31 41 0
10 -31 -41 0
2 31 42 0
2 -31 -42 0
3 32 33 0
3 -32 -33 0
3 32 34 0
3 -32 -34 0
9 32 35 0
9 -32 -35 0
1 32 36 0
1 -32 -36 0
8 32 37 0
8 -32 -37 0
3 32 38 0
3 -32 -38 0
2 32 39 0
2 -32 -39 0
10 32 40 0
10 -32 -40 0
8 32 41 0
8 -32 -41 0
1 32 42 0
1 -32 -42 0
10 33 34 0
10 -33 -34 0
9 33 35 0
9 -33 -35 0
4 33 36 0
4 -33 -36 0
7 33 37 0
7 -33 -37 0
5 33 38 0
5 -33 -38 0
5 33 39 0
5 -33 -39 0
7 33 40 0
7 -33 -40 0
4 33 41 0
4 -33 -41 0
7 33 42 0
7 -33 -42 0
2 34 35 0
2 -34 -35 0
1 34 36 0
1 -34 -36 0
4 34 37 0
4 -34 -37 0
2 34 38 0
2 -34 -38 0
7 34 39 0
7 -34 -39 0
2 34 40 0
2 -34 -40 0
9 34 41 0
9 -34 -41 0
6 34 42 0
6 -34 -42 0
3 35 36 0
3 -35 -36 0
7 35 37 0
7 -35 -37 0
6 35 38 0
6 -35 -38 0
4 35 39 0
4 -35 -39 0
10 35 40 0
10 -35 -40 0
8 35 41 0
8 -35 -41 0
2 35 42 0
2 -35 -42 0
1 36 37 0
1 -36 -37 0
6 36 38 0
6 -36 -38 0
4 36 39 0
4 -36 -39 0
3 36 40 0
3 -36 -40 0
5 36 41 0
5 -36 -41 0
2 36 42 0
2 -36 -42 0
4 37 38 0
4 -37 -38 0
5 37 39 0
5 -37 -39 0
1 37 40 0
1 -37 -40 0
7 37 41 0
7 -37 -41 0
2 37 42 0
2 -37 -42 0
5 38 39 0
5 -38 -39 0
1 38 40 0
1 -38 -40 0
8 38 41 0
8 -38 -41 0
8 38 42 0
8 -38 -42 0
7 39 40 0
7 -39 -40 0
10 39 41 0
10 -39 -41 0
9 39 42 0
9 -39 -42 0
1 40 41 0
1 -40 -41 0
1 40 42 0
1 -40 -42 0
6 41 42 0
6 -41 -42 0
